(declare-fun temp743_1 () (_ BitVec 64))
(declare-fun var989741 () (_ BitVec 64))
(declare-fun temp743_2 () (_ BitVec 64))
(declare-fun var989757 () (_ BitVec 64))
(declare-fun temp743_3 () (_ BitVec 64))
(declare-fun var989761 () (_ BitVec 64))
(declare-fun var989766 () (_ BitVec 64))
(declare-fun var989767 () (_ BitVec 64))
(declare-fun ARGNAME_input_NAMEEND_DIM () (_ BitVec 64))
(declare-fun var989768 () (_ BitVec 64))
(declare-fun var989771 () (_ BitVec 64))
(declare-fun var989772 () (_ BitVec 64))
(declare-fun var989773 () (_ BitVec 64))
(declare-fun temp743_4 () (_ BitVec 64))
(declare-fun var989774 () (_ BitVec 64))
(declare-fun temp743_5 () (_ BitVec 64))
(declare-fun var989775 () (_ BitVec 64))
(declare-fun temp743_6 () (_ BitVec 64))
(declare-fun var989776 () (_ BitVec 64))
(declare-fun temp743_7 () (_ BitVec 64))
(declare-fun var989810 () (_ BitVec 64))
(declare-fun temp743_8 () (_ BitVec 64))
(declare-fun temp743_10 () (_ BitVec 64))
(declare-fun temp743_9 () (_ BitVec 64))
(declare-fun temp743_12 () (_ BitVec 64))
(declare-fun temp743_11 () (_ BitVec 64))
(declare-fun temp743_13 () (_ BitVec 64))
(declare-fun var1387902 () (_ BitVec 64))
(declare-fun temp743_14 () (_ BitVec 64))
(declare-fun var1387923 () (_ BitVec 64))
(declare-fun var1521369 () (_ BitVec 64))
(declare-fun var1521373 () (_ BitVec 64))
(declare-fun var1521631 () (_ BitVec 64))
(declare-fun var1521633 () (_ BitVec 64))
(declare-fun temp743_15 () (_ BitVec 64))
(declare-fun ARGNAME_weight_NAMEEND_DIM () (_ BitVec 64))
(declare-fun var1521660 () (_ BitVec 64))
(declare-fun temp743_16 () (_ BitVec 64))
(declare-fun var1521661 () (_ BitVec 64))
(declare-fun temp743_17 () (_ BitVec 64))
(declare-fun temp743_18 () (_ BitVec 64))
(declare-fun ARGNAME_groups_NAMEEND () (_ BitVec 64))
(declare-fun var1521706 () (_ BitVec 64))
(declare-fun temp743_19 () (_ BitVec 64))
(declare-fun ARGNAME_stride_NAMEEND_LEN () (_ BitVec 64))
(declare-fun ARGNAME_padding_NAMEEND_LEN () (_ BitVec 64))
(declare-fun ARGNAME_dilation_NAMEEND_LEN () (_ BitVec 64))
(declare-fun var2240288 () (_ BitVec 64))
(declare-fun temp743_20 () (_ BitVec 64))
(declare-fun temp743_21 () (_ BitVec 64))
(declare-fun ARGNAME_padding_NAMEEND_VAL () (Array (_ BitVec 64) (_ BitVec 64)))
(declare-fun temp743_22 () (_ BitVec 64))
(declare-fun temp743_23 () (_ BitVec 64))
(declare-fun temp743_24 () (_ BitVec 64))
(declare-fun temp743_25 () (_ BitVec 64))
(declare-fun temp743_26 () (_ BitVec 64))
(declare-fun temp743_27 () (_ BitVec 64))
(declare-fun temp743_28 () (_ BitVec 64))
(declare-fun temp743_29 () (_ BitVec 64))
(declare-fun temp743_30 () (_ BitVec 64))
(declare-fun temp743_31 () (_ BitVec 64))
(declare-fun temp743_32 () (_ BitVec 64))
(declare-fun temp743_33 () (_ BitVec 64))
(declare-fun temp743_34 () (_ BitVec 64))
(declare-fun temp743_35 () (_ BitVec 64))
(declare-fun temp743_36 () (_ BitVec 64))
(declare-fun temp743_37 () (_ BitVec 64))
(declare-fun temp743_38 () (_ BitVec 64))
(declare-fun temp743_39 () (_ BitVec 64))
(declare-fun temp743_40 () (_ BitVec 64))
(declare-fun temp743_41 () (_ BitVec 64))
(declare-fun temp743_42 () (_ BitVec 64))
(declare-fun temp743_43 () (_ BitVec 64))
(declare-fun temp743_44 () (_ BitVec 64))
(declare-fun temp743_45 () (_ BitVec 64))
(declare-fun temp743_46 () (_ BitVec 64))
(declare-fun temp743_47 () (_ BitVec 64))
(declare-fun temp743_48 () (_ BitVec 64))
(declare-fun temp743_49 () (_ BitVec 64))
(declare-fun temp743_50 () (_ BitVec 64))
(declare-fun temp743_51 () (_ BitVec 64))
(declare-fun temp743_52 () (_ BitVec 64))
(declare-fun temp743_53 () (_ BitVec 64))
(declare-fun temp743_54 () (_ BitVec 64))
(declare-fun temp743_55 () (_ BitVec 64))
(declare-fun temp743_56 () (_ BitVec 64))
(declare-fun temp743_57 () (_ BitVec 64))
(declare-fun temp743_58 () (_ BitVec 64))
(declare-fun temp743_59 () (_ BitVec 64))
(declare-fun temp743_60 () (_ BitVec 64))
(declare-fun temp743_61 () (_ BitVec 64))
(declare-fun var2240290 () (_ BitVec 64))
(declare-fun temp743_62 () (_ BitVec 64))
(declare-fun temp743_63 () (_ BitVec 64))
(declare-fun temp743_64 () (_ BitVec 64))
(declare-fun ARGNAME_stride_NAMEEND_VAL () (Array (_ BitVec 64) (_ BitVec 64)))
(declare-fun temp743_65 () (_ BitVec 64))
(declare-fun temp743_66 () (_ BitVec 64))
(declare-fun temp743_67 () (_ BitVec 64))
(declare-fun temp743_68 () (_ BitVec 64))
(declare-fun temp743_69 () (_ BitVec 64))
(declare-fun temp743_70 () (_ BitVec 64))
(declare-fun temp743_71 () (_ BitVec 64))
(declare-fun temp743_72 () (_ BitVec 64))
(declare-fun temp743_73 () (_ BitVec 64))
(declare-fun temp743_74 () (_ BitVec 64))
(declare-fun temp743_75 () (_ BitVec 64))
(declare-fun temp743_76 () (_ BitVec 64))
(declare-fun temp743_77 () (_ BitVec 64))
(declare-fun temp743_78 () (_ BitVec 64))
(declare-fun temp743_79 () (_ BitVec 64))
(declare-fun temp743_80 () (_ BitVec 64))
(declare-fun temp743_81 () (_ BitVec 64))
(declare-fun temp743_82 () (_ BitVec 64))
(declare-fun temp743_83 () (_ BitVec 64))
(declare-fun temp743_84 () (_ BitVec 64))
(declare-fun temp743_85 () (_ BitVec 64))
(declare-fun temp743_86 () (_ BitVec 64))
(declare-fun temp743_87 () (_ BitVec 64))
(declare-fun temp743_88 () (_ BitVec 64))
(declare-fun temp743_89 () (_ BitVec 64))
(declare-fun temp743_90 () (_ BitVec 64))
(declare-fun temp743_91 () (_ BitVec 64))
(declare-fun temp743_92 () (_ BitVec 64))
(declare-fun temp743_93 () (_ BitVec 64))
(declare-fun temp743_94 () (_ BitVec 64))
(declare-fun temp743_95 () (_ BitVec 64))
(declare-fun temp743_96 () (_ BitVec 64))
(declare-fun temp743_97 () (_ BitVec 64))
(declare-fun temp743_98 () (_ BitVec 64))
(declare-fun temp743_99 () (_ BitVec 64))
(declare-fun temp743_100 () (_ BitVec 64))
(declare-fun temp743_101 () (_ BitVec 64))
(declare-fun temp743_102 () (_ BitVec 64))
(declare-fun temp743_103 () (_ BitVec 64))
(declare-fun temp743_104 () (_ BitVec 64))
(declare-fun var2240311 () (_ BitVec 64))
(declare-fun temp743_105 () (_ BitVec 64))
(declare-fun temp743_106 () (_ BitVec 64))
(declare-fun var2228402 () (_ BitVec 64))
(declare-fun temp743_107 () (_ BitVec 64))
(declare-fun temp743_108 () (_ BitVec 64))
(declare-fun ARGNAME_weight_NAMEEND_DIMSIZE
             ()
             (Array (_ BitVec 64) (_ BitVec 64)))
(declare-fun temp743_109 () (_ BitVec 64))
(declare-fun temp743_110 () (_ BitVec 64))
(declare-fun temp743_111 () (_ BitVec 64))
(declare-fun temp743_112 () (_ BitVec 64))
(declare-fun temp743_113 () (_ BitVec 64))
(declare-fun temp743_114 () (_ BitVec 64))
(declare-fun temp743_115 () (_ BitVec 64))
(declare-fun temp743_116 () (_ BitVec 64))
(declare-fun temp743_117 () (_ BitVec 64))
(declare-fun temp743_118 () (_ BitVec 64))
(declare-fun temp743_119 () (_ BitVec 64))
(declare-fun temp743_120 () (_ BitVec 64))
(declare-fun temp743_121 () (_ BitVec 64))
(declare-fun temp743_122 () (_ BitVec 64))
(declare-fun temp743_123 () (_ BitVec 64))
(declare-fun temp743_124 () (_ BitVec 64))
(declare-fun temp743_126 () (_ BitVec 64))
(declare-fun temp743_127 () (_ BitVec 64))
(declare-fun temp743_125 () (_ BitVec 64))
(declare-fun var2240356 () (_ BitVec 64))
(declare-fun temp743_128 () (_ BitVec 64))
(declare-fun temp743_129 () (_ BitVec 64))
(declare-fun temp743_131 () (_ BitVec 64))
(declare-fun temp743_132 () (_ BitVec 64))
(declare-fun temp743_130 () (_ BitVec 64))
(declare-fun var2240378 () (_ BitVec 64))
(declare-fun temp743_133 () (_ BitVec 64))
(declare-fun var2240379 () (_ BitVec 64))
(declare-fun temp743_134 () (_ BitVec 64))
(declare-fun var2240398 () (_ BitVec 64))
(declare-fun temp743_135 () (_ BitVec 64))
(declare-fun var2240399 () (_ BitVec 64))
(declare-fun temp743_136 () (_ BitVec 64))
(declare-fun temp743_137 () (_ BitVec 64))
(declare-fun var2229290 () (_ BitVec 64))
(declare-fun temp743_139 () (_ BitVec 64))
(declare-fun temp743_140 () (_ BitVec 64))
(declare-fun temp743_138 () (_ BitVec 64))
(declare-fun var2240411 () (_ BitVec 64))
(declare-fun temp743_141 () (_ BitVec 64))
(declare-fun temp743_143 () (_ BitVec 64))
(declare-fun temp743_144 () (_ BitVec 64))
(declare-fun temp743_142 () (_ BitVec 64))
(declare-fun temp743_145 () (_ BitVec 64))
(declare-fun var2503529 () (_ BitVec 64))
(declare-fun temp743_146 () (_ BitVec 64))
(declare-fun var2240569 () (_ BitVec 64))
(declare-fun temp743_147 () (_ BitVec 64))
(declare-fun var1521778 () (_ BitVec 64))
(declare-fun temp743_148 () (_ BitVec 64))
(declare-fun temp743_149 () (_ BitVec 64))
(declare-fun var1521908 () (_ BitVec 64))
(declare-fun var4010473 () (_ BitVec 64))
(declare-fun temp743_150 () (_ BitVec 64))
(declare-fun var4210495 () (_ BitVec 64))
(declare-fun var4210497 () (_ BitVec 64))
(declare-fun var4210454 () (_ BitVec 64))
(declare-fun var1521921 () (_ BitVec 64))
(declare-fun temp743_151 () (_ BitVec 64))
(declare-fun var4339331 () (_ BitVec 64))
(declare-fun var4339333 () (_ BitVec 64))
(declare-fun var4404876 () (_ BitVec 64))
(declare-fun var4404877 () (_ BitVec 64))
(declare-fun temp743_153 () (_ BitVec 64))
(declare-fun temp743_152 () (_ BitVec 64))
(declare-fun temp743_154 () (_ BitVec 64))
(assert (= temp743_1 #x0000000000000002))
(assert (= var989741 temp743_1))
(assert (= temp743_2 #x0000000000000001))
(assert (= var989757 (bvadd var989741 temp743_2)))
(assert (= temp743_3 #x0000000000000002))
(assert (= var989761 (bvadd var989741 temp743_3)))
(assert (= var989766 var989761))
(assert (= var989767
   (ite (= ARGNAME_input_NAMEEND_DIM var989766)
        #x0000000000000001
        #x0000000000000000)))
(assert (= var989768 var989767))
(assert (= var989771 var989757))
(assert (= var989772
   (ite (distinct ARGNAME_input_NAMEEND_DIM var989771)
        #x0000000000000001
        #x0000000000000000)))
(assert (= var989773 var989768))
(assert (= temp743_4 #x0000000000000001))
(assert (= var989774 (bvand var989773 temp743_4)))
(assert (= temp743_5 #x0000000000000000))
(assert (= var989775
   (ite (= var989774 temp743_5) #x0000000000000001 #x0000000000000000)))
(assert (= var989776 (bvand var989772 var989775)))
(assert (= temp743_6 #x0000000000000000))
(assert (= var989776 temp743_6))
(assert (= temp743_7 #x0000000000000000))
(assert (= var989810
   (ite (= var989773 temp743_7) #x0000000000000001 #x0000000000000000)))
(assert (= temp743_8 #x0000000000000001))
(assert (= var989810 temp743_8))
(assert (= temp743_10 #x0000000000000000))
(assert (= temp743_9 temp743_10))
(assert (= temp743_12 #x0000000000000002))
(assert (= temp743_11 temp743_12))
(assert (= temp743_13 #x0000000000000000))
(assert (= var1387902 temp743_13))
(assert (= temp743_14 #x0000000000000001))
(assert (= var1387923 temp743_14))
(assert (= var1521369 var1387902))
(assert (= var1521373 var1387923))
(assert (= var1521631 var1521369))
(assert (= var1521633 var1521373))
(assert (= temp743_15 #xfffffffffffffffe))
(assert (= var1521660 (bvadd ARGNAME_weight_NAMEEND_DIM temp743_15)))
(assert (= temp743_16 #x0000000000000003))
(assert (= var1521661
   (ite (bvslt ARGNAME_weight_NAMEEND_DIM temp743_16)
        #x0000000000000001
        #x0000000000000000)))
(assert (= temp743_17 #x0000000000000000))
(assert (= var1521661 temp743_17))
(assert (= temp743_18 #x0000000000000001))
(assert (= var1521706
   (ite (bvslt ARGNAME_groups_NAMEEND temp743_18)
        #x0000000000000001
        #x0000000000000000)))
(assert (= temp743_19 #x0000000000000000))
(assert (= var1521706 temp743_19))
(assert (= ARGNAME_stride_NAMEEND_LEN var1521660))
(assert (= ARGNAME_padding_NAMEEND_LEN var1521660))
(assert (= ARGNAME_dilation_NAMEEND_LEN var1521660))
(assert (= var2240288 var1521631))
(assert (= temp743_20 #x0000000000000000))
(assert (= temp743_21 temp743_20))
(assert (= temp743_22 (select ARGNAME_padding_NAMEEND_VAL temp743_21)))
(assert (= temp743_23 #x0000000000000001))
(assert (= temp743_24 temp743_23))
(assert (= temp743_25 (select ARGNAME_padding_NAMEEND_VAL temp743_24)))
(assert (= temp743_26 #x0000000000000002))
(assert (= temp743_27 temp743_26))
(assert (= temp743_28 (select ARGNAME_padding_NAMEEND_VAL temp743_27)))
(assert (= temp743_29 #x0000000000000003))
(assert (= temp743_30 temp743_29))
(assert (= temp743_31 (select ARGNAME_padding_NAMEEND_VAL temp743_30)))
(assert (= temp743_32 #x0000000000000004))
(assert (= temp743_33 temp743_32))
(assert (= temp743_34 (select ARGNAME_padding_NAMEEND_VAL temp743_33)))
(assert (= temp743_35 #x0000000000000005))
(assert (= temp743_36 temp743_35))
(assert (= temp743_37 (select ARGNAME_padding_NAMEEND_VAL temp743_36)))
(assert (= temp743_38 #x0000000000000000))
(assert (= temp743_39 #x0000000000000000))
(assert (= temp743_40 temp743_39))
(assert (= temp743_41 (select ARGNAME_padding_NAMEEND_VAL temp743_40)))
(assert (= temp743_42 #x0000000000000000))
(assert (= temp743_43 #x0000000000000001))
(assert (= temp743_44 temp743_43))
(assert (= temp743_45 (select ARGNAME_padding_NAMEEND_VAL temp743_44)))
(assert (= temp743_46 #x0000000000000000))
(assert (= temp743_47 #x0000000000000002))
(assert (= temp743_48 temp743_47))
(assert (= temp743_49 (select ARGNAME_padding_NAMEEND_VAL temp743_48)))
(assert (= temp743_50 #x0000000000000000))
(assert (= temp743_51 #x0000000000000003))
(assert (= temp743_52 temp743_51))
(assert (= temp743_53 (select ARGNAME_padding_NAMEEND_VAL temp743_52)))
(assert (= temp743_54 #x0000000000000000))
(assert (= temp743_55 #x0000000000000004))
(assert (= temp743_56 temp743_55))
(assert (= temp743_57 (select ARGNAME_padding_NAMEEND_VAL temp743_56)))
(assert (= temp743_58 #x0000000000000000))
(assert (= temp743_59 #x0000000000000005))
(assert (= temp743_60 temp743_59))
(assert (= temp743_61 (select ARGNAME_padding_NAMEEND_VAL temp743_60)))
(assert (= var2240290
   (ite (and true
             (bvslt temp743_41 temp743_38)
             (bvslt temp743_45 temp743_42)
             (bvslt temp743_49 temp743_46)
             (bvslt temp743_53 temp743_50)
             (bvslt temp743_57 temp743_54)
             (bvslt temp743_61 temp743_58))
        #x0000000000000001
        #x0000000000000000)))
(assert (= temp743_62 #x0000000000000000))
(assert (= var2240290 temp743_62))
(assert (= temp743_63 #x0000000000000000))
(assert (= temp743_64 temp743_63))
(assert (= temp743_65 (select ARGNAME_stride_NAMEEND_VAL temp743_64)))
(assert (= temp743_66 #x0000000000000001))
(assert (= temp743_67 temp743_66))
(assert (= temp743_68 (select ARGNAME_stride_NAMEEND_VAL temp743_67)))
(assert (= temp743_69 #x0000000000000002))
(assert (= temp743_70 temp743_69))
(assert (= temp743_71 (select ARGNAME_stride_NAMEEND_VAL temp743_70)))
(assert (= temp743_72 #x0000000000000003))
(assert (= temp743_73 temp743_72))
(assert (= temp743_74 (select ARGNAME_stride_NAMEEND_VAL temp743_73)))
(assert (= temp743_75 #x0000000000000004))
(assert (= temp743_76 temp743_75))
(assert (= temp743_77 (select ARGNAME_stride_NAMEEND_VAL temp743_76)))
(assert (= temp743_78 #x0000000000000005))
(assert (= temp743_79 temp743_78))
(assert (= temp743_80 (select ARGNAME_stride_NAMEEND_VAL temp743_79)))
(assert (= temp743_81 #x0000000000000000))
(assert (= temp743_82 #x0000000000000000))
(assert (= temp743_83 temp743_82))
(assert (= temp743_84 (select ARGNAME_stride_NAMEEND_VAL temp743_83)))
(assert (= temp743_85 #x0000000000000000))
(assert (= temp743_86 #x0000000000000001))
(assert (= temp743_87 temp743_86))
(assert (= temp743_88 (select ARGNAME_stride_NAMEEND_VAL temp743_87)))
(assert (= temp743_89 #x0000000000000000))
(assert (= temp743_90 #x0000000000000002))
(assert (= temp743_91 temp743_90))
(assert (= temp743_92 (select ARGNAME_stride_NAMEEND_VAL temp743_91)))
(assert (= temp743_93 #x0000000000000000))
(assert (= temp743_94 #x0000000000000003))
(assert (= temp743_95 temp743_94))
(assert (= temp743_96 (select ARGNAME_stride_NAMEEND_VAL temp743_95)))
(assert (= temp743_97 #x0000000000000000))
(assert (= temp743_98 #x0000000000000004))
(assert (= temp743_99 temp743_98))
(assert (= temp743_100 (select ARGNAME_stride_NAMEEND_VAL temp743_99)))
(assert (= temp743_101 #x0000000000000000))
(assert (= temp743_102 #x0000000000000005))
(assert (= temp743_103 temp743_102))
(assert (= temp743_104 (select ARGNAME_stride_NAMEEND_VAL temp743_103)))
(assert (= var2240311
   (ite (and true
             (bvsle temp743_84 temp743_81)
             (bvsle temp743_88 temp743_85)
             (bvsle temp743_92 temp743_89)
             (bvsle temp743_96 temp743_93)
             (bvsle temp743_100 temp743_97)
             (bvsle temp743_104 temp743_101))
        #x0000000000000001
        #x0000000000000000)))
(assert (= temp743_105 #x0000000000000000))
(assert (= var2240311 temp743_105))
(assert (= temp743_106 #x0000000000000000))
(assert (= var2228402 temp743_106))
(assert (= temp743_107 #x0000000000000000))
(assert (= temp743_108 temp743_107))
(assert (= temp743_109 (select ARGNAME_weight_NAMEEND_DIMSIZE temp743_108)))
(assert (= temp743_110 #x0000000000000001))
(assert (= temp743_111 temp743_110))
(assert (= temp743_112 (select ARGNAME_weight_NAMEEND_DIMSIZE temp743_111)))
(assert (= temp743_113 #x0000000000000002))
(assert (= temp743_114 temp743_113))
(assert (= temp743_115 (select ARGNAME_weight_NAMEEND_DIMSIZE temp743_114)))
(assert (= temp743_116 #x0000000000000003))
(assert (= temp743_117 temp743_116))
(assert (= temp743_118 (select ARGNAME_weight_NAMEEND_DIMSIZE temp743_117)))
(assert (= temp743_119 #x0000000000000004))
(assert (= temp743_120 temp743_119))
(assert (= temp743_121 (select ARGNAME_weight_NAMEEND_DIMSIZE temp743_120)))
(assert (= temp743_122 #x0000000000000005))
(assert (= temp743_123 temp743_122))
(assert (= temp743_124 (select ARGNAME_weight_NAMEEND_DIMSIZE temp743_123)))
(assert (= temp743_126 var2228402))
(assert (= temp743_127 (select ARGNAME_weight_NAMEEND_DIMSIZE temp743_126)))
(assert (= temp743_125 temp743_127))
(assert (= var2240356
   (ite (bvslt temp743_125 ARGNAME_groups_NAMEEND)
        #x0000000000000001
        #x0000000000000000)))
(assert (= temp743_128 #x0000000000000000))
(assert (= var2240356 temp743_128))
(assert (= temp743_129 #x0000000000000000))
(assert (= var2228402 temp743_129))
(assert (= temp743_131 var2228402))
(assert (= temp743_132 (select ARGNAME_weight_NAMEEND_DIMSIZE temp743_131)))
(assert (= temp743_130 temp743_132))
(assert (= var2240378 (bvsmod temp743_130 ARGNAME_groups_NAMEEND)))
(assert (= temp743_133 #x0000000000000000))
(assert (= var2240379
   (ite (= var2240378 temp743_133) #x0000000000000001 #x0000000000000000)))
(assert (= temp743_134 #x0000000000000001))
(assert (= var2240379 temp743_134))
(assert (= var2240398 var2240288))
(assert (= temp743_135 #x0000000000000000))
(assert (= var2240399
   (ite (= var2240398 temp743_135) #x0000000000000001 #x0000000000000000)))
(assert (= temp743_136 #x0000000000000001))
(assert (= var2240399 temp743_136))
(assert (= temp743_137 #x0000000000000001))
(assert (= var2229290 temp743_137))
(assert (= temp743_139 var2229290))
(assert (= temp743_140 (select ARGNAME_weight_NAMEEND_DIMSIZE temp743_139)))
(assert (= temp743_138 temp743_140))
(assert (= var2240411 (bvmul ARGNAME_groups_NAMEEND temp743_138)))
(assert (= temp743_141 #x0000000000000000))
(assert (= var2228402 temp743_141))
(assert (= temp743_143 var2228402))
(assert (= temp743_144 (select ARGNAME_weight_NAMEEND_DIMSIZE temp743_143)))
(assert (= temp743_142 temp743_144))
(assert (= temp743_145 #x0000000000000002))
(assert (= var2503529 temp743_145))
(assert (= temp743_146 #x0000000000000001))
(assert (= var2240569 temp743_146))
(assert (= temp743_147 #x0000000000000003))
(assert (= var1521778
   (ite (= ARGNAME_weight_NAMEEND_DIM temp743_147)
        #x0000000000000001
        #x0000000000000000)))
(assert (= temp743_148 #x0000000000000001))
(assert (= var1521778 temp743_148))
(assert (= temp743_149 #x0000000000000001))
(assert (= var1521908 temp743_149))
(assert (= var4010473 var1521908))
(assert (= temp743_150 #x0000000000000000))
(assert (= var4210495 temp743_150))
(assert (= var4210497 var4210495))
(assert (= var4210454 var4210497))
(assert (= var1521921 var4210454))
(assert (= temp743_151 #x0000000000000002))
(assert (= var4339331 temp743_151))
(assert (= var4339333 (bvsub ARGNAME_weight_NAMEEND_DIM var4339331)))
(assert (= var4404876 var4339331))
(assert (= var4404877 var4339333))
(assert (= temp743_153 #xffffffffffffffff))
(assert (= temp743_152 temp743_153))
(assert (= temp743_154 #x0000000000000001))
(assert (= var1521778 temp743_154))
(model-add temp743_1 () (_ BitVec 64) #x0000000000000002)
(model-add var989741 () (_ BitVec 64) #x0000000000000002)
(model-add temp743_2 () (_ BitVec 64) #x0000000000000001)
(model-add var989757 () (_ BitVec 64) #x0000000000000003)
(model-add temp743_3 () (_ BitVec 64) #x0000000000000002)
(model-add var989761 () (_ BitVec 64) #x0000000000000004)
(model-add var989766 () (_ BitVec 64) #x0000000000000004)
(model-add var989767
           ()
           (_ BitVec 64)
           (ite (= ARGNAME_input_NAMEEND_DIM #x0000000000000004)
                #x0000000000000001
                #x0000000000000000))
(model-add var989768
           ()
           (_ BitVec 64)
           (ite (= ARGNAME_input_NAMEEND_DIM #x0000000000000004)
                #x0000000000000001
                #x0000000000000000))
(model-add var989771 () (_ BitVec 64) #x0000000000000003)
(model-add var989772
           ()
           (_ BitVec 64)
           (ite (= ARGNAME_input_NAMEEND_DIM #x0000000000000003)
                #x0000000000000000
                #x0000000000000001))
(model-add var989773
           ()
           (_ BitVec 64)
           (ite (= ARGNAME_input_NAMEEND_DIM #x0000000000000004)
                #x0000000000000001
                #x0000000000000000))
(model-add temp743_4 () (_ BitVec 64) #x0000000000000001)
(model-add var989774
           ()
           (_ BitVec 64)
           (concat #b000000000000000000000000000000000000000000000000000000000000000
                   (ite (= ARGNAME_input_NAMEEND_DIM #x0000000000000004)
                        #b1
                        #b0)))
(model-add temp743_5 () (_ BitVec 64) #x0000000000000000)
(model-add var989775
           ()
           (_ BitVec 64)
           (ite (= ARGNAME_input_NAMEEND_DIM #x0000000000000004)
                #x0000000000000000
                #x0000000000000001))
(model-add temp743_6 () (_ BitVec 64) #x0000000000000000)
(model-add var989776 () (_ BitVec 64) #x0000000000000000)






